
******************************************************************************
This program contains Ipopt, a library for large-scale nonlinear optimization.
 Ipopt is released as open source code under the Eclipse Public License (EPL).
         For more information visit http://projects.coin-or.org/Ipopt

This version of Ipopt was compiled from source code available at
    https://github.com/IDAES/Ipopt as part of the Institute for the Design of
    Advanced Energy Systems Process Systems Engineering Framework (IDAES PSE
    Framework) Copyright (c) 2018-2019. See https://github.com/IDAES/idaes-pse.

This version of Ipopt was compiled using HSL, a collection of Fortran codes
    for large-scale scientific computation.  All technical papers, sales and
    publicity material resulting from use of the HSL codes within IPOPT must
    contain the following acknowledgement:
        HSL, a collection of Fortran codes for large-scale scientific
        computation. See http://www.hsl.rl.ac.uk.
******************************************************************************

This is Ipopt version 3.13.2, running with linear solver ma27.

Number of nonzeros in equality constraint Jacobian...:      958
Number of nonzeros in inequality constraint Jacobian.:        0
Number of nonzeros in Lagrangian Hessian.............:      832

Total number of variables............................:      416
                     variables with only lower bounds:      128
                variables with lower and upper bounds:      224
                     variables with only upper bounds:        0
Total number of equality constraints.................:      415
Total number of inequality constraints...............:        0
        inequality constraints with only lower bounds:        0
   inequality constraints with lower and upper bounds:        0
        inequality constraints with only upper bounds:        0

iter    objective    inf_pr   inf_du lg(mu)  ||d||  lg(rg) alpha_du alpha_pr  ls
   0  0.0000000e+00 5.46e-01 1.78e-15  -1.0 0.00e+00    -  0.00e+00 0.00e+00   0
   1  1.7923212e-02 5.15e-01 3.27e+03  -1.0 1.79e+05    -  2.02e-01 5.02e-02h  1
   2  1.8644953e-02 5.15e-01 3.26e+03  -1.0 1.90e+05    -  6.45e-01 1.08e-03h  1
   3  1.7692437e+01 4.53e-02 2.88e+05  -1.0 2.57e+05    -  7.49e-01 9.90e-01h  1
   4  2.3776204e+01 1.47e-03 4.42e+04  -1.0 4.60e+04    -  9.47e-01 9.90e-01h  1
   5  2.3976583e+01 1.58e-05 5.37e+02  -1.0 1.56e+03    -  9.89e-01 9.90e-01h  1
   6  2.3977101e+01 1.56e-05 1.03e+07  -1.0 3.77e+02    -  9.90e-01 1.55e-02f  7
   7  2.3980279e+01 1.51e-05 2.02e+07  -1.0 1.18e+03    -  9.90e-01 3.09e-02f  6
   8  2.4080799e+01 1.40e-05 3.13e+05  -1.0 1.17e+03    -  1.00e+00 9.90e-01h  1
   9  2.4082054e+01 1.49e-07 1.10e+07  -1.0 1.48e+01    -  1.00e+00 9.90e-01h  1
iter    objective    inf_pr   inf_du lg(mu)  ||d||  lg(rg) alpha_du alpha_pr  ls
  10  2.4082069e+01 1.49e-09 1.10e+09  -1.0 1.74e-01    -  1.00e+00 9.90e-01h  1
  11  2.4082069e+01 1.49e-11 1.10e+11  -1.0 1.74e-03    -  1.00e+00 9.90e-01h  1
In iteration 11, 32 Slacks too small, adjusting variable bounds
  12  2.4082069e+01 5.34e-13 1.10e+13  -1.0 1.75e-05    -  1.00e+00 9.90e-01h  1
  13  2.4082069e+01 7.98e-13 1.08e+15  -1.0 2.07e-07    -  1.00e+00 1.56e-02h  7
  14  2.4082069e+01 7.59e-13 6.64e-02  -1.0 1.90e-07    -  1.00e+00 1.00e+00s 22
  15  2.3978068e+01 1.64e-05 7.51e-02  -9.0 1.25e+03    -  9.65e-01 9.65e-01s 22
  16  2.3978114e+01 3.69e-09 6.87e-05  -9.0 9.55e-01    -  1.00e+00 1.00e+00s 22

Number of Iterations....: 16

                                   (scaled)                 (unscaled)
Objective...............:   2.3978114276619163e+01    2.3978114276619163e+01
Dual infeasibility......:   6.8739056587219238e-05    6.8739056587219238e-05
Constraint violation....:   3.6887831122989212e-09    3.6887831122989212e-09
Complementarity.........:   5.1739869014511075e-07    5.1739869014511075e-07
Overall NLP error.......:   3.6887831122989212e-09    6.8739056587219238e-05


Number of objective function evaluations             = 57
Number of objective gradient evaluations             = 17
Number of equality constraint evaluations            = 57
Number of inequality constraint evaluations          = 0
Number of equality constraint Jacobian evaluations   = 17
Number of inequality constraint Jacobian evaluations = 0
Number of Lagrangian Hessian evaluations             = 16
Total CPU secs in IPOPT (w/o function evaluations)   =      0.040
Total CPU secs in NLP function evaluations           =      0.605

EXIT: Optimal Solution Found.
